1 2 8 6 4 5 7 0 8 6 9 1 7 3 10 4 0 1 2 3 6 4 5 11 5 7 4 0 1 2 3 6 6 0 1 2 3 8 4 9 2 5 3 11 0 9 6 7 4 11 0 9 2 7 8 10 7 8 6 12 11 10 9 5
5 4 7 6 2 1 3 8 3 2 0 1 8 7 6 4 1 7 8 3 4 0 5 2 8 6 4 0 1 2 7 3 7 0 5 2 3 6 8 1 6 1 3 7 5 4 2 0 2 5 6 4 0 8 1 7 4 8 1 5 7 3 0 6
5 4 7 6 2 1 3 8 3 2 0 1 8 7 6 4 1 7 8 3 4 0 5 2 8 6 4 0 1 2 7 3 7 0 5 2 3 6 8 1 6 1 3 7 5 4 2 0 2 5 6 4 0 8 1 7 4 8 1 5 7 3 0 6
